unsat
(forall ((A (_ BitVec 1))
         (B (_ BitVec 32))
         (C (_ BitVec 1))
         (D (_ BitVec 32))
         (E (_ BitVec 1))
         (F (_ BitVec 9))
         (G (_ BitVec 1))
         (H (_ BitVec 20))
         (I (_ BitVec 32))
         (J (_ BitVec 32))
         (K (_ BitVec 16))
         (L (_ BitVec 18))
         (M (_ BitVec 16))
         (N (_ BitVec 16))
         (O (_ BitVec 1))
         (P (_ BitVec 16))
         (Q (_ BitVec 72))
         (R (_ BitVec 16))
         (S (_ BitVec 32))
         (T (_ BitVec 16))
         (U (_ BitVec 16))
         (V (_ BitVec 32))
         (W (_ BitVec 32))
         (X (_ BitVec 1))
         (Y (_ BitVec 16))
         (Z (_ BitVec 32))
         (A1 (_ BitVec 9))
         (B1 (_ BitVec 128))
         (C1 (_ BitVec 16))
         (D1 (_ BitVec 1))
         (E1 (_ BitVec 16))
         (F1 (_ BitVec 16))
         (G1 (_ BitVec 32))
         (H1 (_ BitVec 16))
         (I1 (_ BitVec 16))
         (J1 (_ BitVec 32))
         (K1 (_ BitVec 16))
         (L1 (_ BitVec 1))
         (M1 (_ BitVec 36))
         (N1 (_ BitVec 16))
         (O1 (_ BitVec 1))
         (P1 (_ BitVec 32))
         (Q1 (_ BitVec 16))
         (R1 (_ BitVec 32))
         (S1 (_ BitVec 16))
         (T1 (_ BitVec 32))
         (U1 (_ BitVec 1))
         (V1 (_ BitVec 1))
         (W1 (_ BitVec 17))
         (X1 (_ BitVec 8))
         (Y1 (_ BitVec 16))
         (Z1 (_ BitVec 1))
         (A2 (_ BitVec 16))
         (B2 (_ BitVec 16))
         (C2 (_ BitVec 17))
         (D2 (_ BitVec 1))
         (E2 (_ BitVec 1))
         (F2 (_ BitVec 1))
         (G2 (_ BitVec 16))
         (H2 (_ BitVec 128))
         (I2 (_ BitVec 16))
         (J2 (_ BitVec 1))
         (K2 (_ BitVec 16))
         (L2 (_ BitVec 16))
         (M2 (_ BitVec 16))
         (N2 (_ BitVec 1))
         (O2 (_ BitVec 16))
         (P2 (_ BitVec 16))
         (Q2 (_ BitVec 16))
         (R2 (_ BitVec 16))
         (S2 (_ BitVec 16))
         (T2 (_ BitVec 1))
         (U2 (_ BitVec 16))
         (V2 (_ BitVec 32))
         (W2 (_ BitVec 16))
         (X2 (_ BitVec 1))
         (Y2 (_ BitVec 64))
         (Z2 (_ BitVec 1))
         (A3 (_ BitVec 32)))
  (! (let ((a!1 (or (= (bvor L1 N2) D2)
                    (not (= D1 #b0))
                    (not (= ((_ extract 6 0) X1) #b0000000))))
           (a!2 (not (bvsle (concat ((_ extract 44 44) Q)
                                    ((_ extract 44 44) Q)
                                    ((_ extract 44 44) Q)
                                    ((_ extract 44 44) Q)
                                    ((_ extract 44 44) Q)
                                    ((_ extract 44 44) Q)
                                    ((_ extract 44 44) Q)
                                    ((_ extract 44 44) Q)
                                    ((_ extract 44 44) Q)
                                    ((_ extract 44 44) Q)
                                    ((_ extract 44 44) Q)
                                    ((_ extract 44 44) Q)
                                    ((_ extract 44 44) Q)
                                    ((_ extract 44 44) Q)
                                    ((_ extract 44 44) Q)
                                    ((_ extract 44 44) Q)
                                    ((_ extract 44 44) Q)
                                    ((_ extract 44 44) Q)
                                    ((_ extract 44 44) Q)
                                    ((_ extract 44 44) Q)
                                    ((_ extract 44 44) Q)
                                    ((_ extract 44 44) Q)
                                    ((_ extract 44 44) Q)
                                    ((_ extract 44 36) Q))
                            #x00000000)))
           (a!3 (or ((_ bit2bool 3) A1)
                    (not (= D1 #b0))
                    (not (= U1 #b1))
                    (not (= ((_ extract 5 0) G1) #b100010))))
           (a!4 (or (= X2 #b1)
                    ((_ bit2bool 3) A1)
                    (= V1 #b0)
                    (not (= ((_ extract 5 0) G1) #b100010))))
           (a!5 (or ((_ bit2bool 0) A1)
                    (not (= D1 #b0))
                    (= Z1 #b0)
                    (not (= ((_ extract 5 0) S) #b100010))))
           (a!6 (or (= X2 #b1)
                    (= U1 #b1)
                    (= V1 #b0)
                    (not (= ((_ extract 5 0) G1) #b011101))))
           (a!7 (or (= X2 #b1)
                    ((_ bit2bool 3) A1)
                    (= V1 #b0)
                    (not (= ((_ extract 5 0) G1) #b011101))))
           (a!8 (or (= X2 #b1)
                    ((_ bit2bool 0) A1)
                    (= Z1 #b0)
                    (not (= ((_ extract 5 0) S) #b011101))))
           (a!9 (or (= X2 #b1)
                    ((_ bit2bool 4) A1)
                    ((_ bit2bool 1) B)
                    (not (= ((_ extract 5 3) B) #b010))
                    (= C #b0)))
           (a!10 (or (= X2 #b1)
                     ((_ bit2bool 2) A1)
                     ((_ bit2bool 1) T1)
                     (= O #b0)
                     (not (= ((_ extract 5 3) T1) #b010))))
           (a!11 (or (= X2 #b1)
                     (not (= U1 #b1))
                     (not (= ((_ extract 5 3) G1) #b010))))
           (a!12 (or (= X2 #b1)
                     ((_ bit2bool 4) A1)
                     ((_ bit2bool 0) B)
                     (not (= ((_ extract 5 3) B) #b010))
                     (= C #b0))))
     (let ((a!13 (and a!1
                      (= E2 #b1)
                      (or (= X2 #b1)
                          (bvsle ((_ extract 62 54) Q) ((_ extract 71 63) Q))
                          (bvsle ((_ extract 44 36) Q) ((_ extract 62 54) Q))
                          a!2)
                      (or (not ((_ bit2bool 0) U1)) (not (= V1 #b0)) (= X2 #b1))
                      (or (= X2 #b1)
                          ((_ bit2bool 3) A1)
                          ((_ bit2bool 0) G1)
                          ((_ bit2bool 5) G1)
                          (= V1 #b0)
                          (not ((_ bit2bool 4) G1))
                          (not ((_ bit2bool 3) G1))
                          (not ((_ bit2bool 2) G1)))
                      (or ((_ bit2bool 2) A1)
                          ((_ bit2bool 0) D)
                          ((_ bit2bool 5) D)
                          (not (= D1 #b0))
                          (= J2 #b0)
                          (not ((_ bit2bool 4) D))
                          (not ((_ bit2bool 3) D))
                          (not ((_ bit2bool 2) D)))
                      (or (= X2 #b1)
                          ((_ bit2bool 1) A1)
                          ((_ bit2bool 0) V2)
                          ((_ bit2bool 5) V2)
                          (= T2 #b0)
                          (not ((_ bit2bool 2) V2))
                          (not ((_ bit2bool 3) V2))
                          (not ((_ bit2bool 4) V2)))
                      (or (= X2 #b1)
                          ((_ bit2bool 0) A1)
                          ((_ bit2bool 0) S)
                          ((_ bit2bool 5) S)
                          (= Z1 #b0)
                          (not ((_ bit2bool 2) S))
                          (not ((_ bit2bool 3) S))
                          (not ((_ bit2bool 4) S)))
                      (or (= X2 #b1)
                          ((_ bit2bool 3) A1)
                          ((_ bit2bool 1) G1)
                          ((_ bit2bool 3) G1)
                          ((_ bit2bool 4) G1)
                          (= V1 #b0)
                          (= ((_ extract 2 2) G1) #b1)
                          (not ((_ bit2bool 5) G1)))
                      (or (= X2 #b1)
                          ((_ bit2bool 2) A1)
                          ((_ bit2bool 1) D)
                          ((_ bit2bool 2) D)
                          ((_ bit2bool 3) D)
                          ((_ bit2bool 4) D)
                          (= J2 #b0)
                          (not ((_ bit2bool 5) D)))
                      (or (= X2 #b1)
                          ((_ bit2bool 1) A1)
                          ((_ bit2bool 1) V2)
                          ((_ bit2bool 2) V2)
                          ((_ bit2bool 3) V2)
                          ((_ bit2bool 4) V2)
                          (= T2 #b0)
                          (not ((_ bit2bool 5) V2)))
                      (or (= X2 #b1)
                          ((_ bit2bool 0) A1)
                          ((_ bit2bool 1) S)
                          ((_ bit2bool 2) S)
                          ((_ bit2bool 3) S)
                          ((_ bit2bool 4) S)
                          (= Z1 #b0)
                          (not ((_ bit2bool 5) S)))
                      a!3
                      a!4
                      (or ((_ bit2bool 2) A1)
                          ((_ bit2bool 0) D)
                          ((_ bit2bool 2) D)
                          ((_ bit2bool 3) D)
                          ((_ bit2bool 4) D)
                          (not (= D1 #b0))
                          (= J2 #b0)
                          (not ((_ bit2bool 5) D)))
                      (or ((_ bit2bool 1) A1)
                          ((_ bit2bool 0) V2)
                          ((_ bit2bool 2) V2)
                          ((_ bit2bool 3) V2)
                          ((_ bit2bool 4) V2)
                          (not (= D1 #b0))
                          (= T2 #b0)
                          (not ((_ bit2bool 5) V2)))
                      a!5
                      a!6
                      a!7
                      (or ((_ bit2bool 2) A1)
                          ((_ bit2bool 1) D)
                          ((_ bit2bool 5) D)
                          (not (= D1 #b0))
                          (= J2 #b0)
                          (not ((_ bit2bool 4) D))
                          (not ((_ bit2bool 3) D))
                          (not ((_ bit2bool 2) D)))
                      (or (= X2 #b1)
                          ((_ bit2bool 1) A1)
                          ((_ bit2bool 1) V2)
                          ((_ bit2bool 5) V2)
                          (= T2 #b0)
                          (not ((_ bit2bool 2) V2))
                          (not ((_ bit2bool 3) V2))
                          (not ((_ bit2bool 4) V2)))
                      a!8
                      (or (not ((_ bit2bool 8) A1)) (not (= V1 #b0)) (= X2 #b1))
                      (or (= X2 #b1)
                          ((_ bit2bool 0) J2)
                          (not ((_ bit2bool 7) A1)))
                      (or (= X2 #b1)
                          ((_ bit2bool 0) T2)
                          (not ((_ bit2bool 6) A1)))
                      (or (= X2 #b1)
                          ((_ bit2bool 0) Z1)
                          (not ((_ bit2bool 5) A1)))
                      (or ((_ bit2bool 8) A1)
                          ((_ bit2bool 1) G1)
                          ((_ bit2bool 3) G1)
                          ((_ bit2bool 5) G1)
                          (= V1 #b0)
                          (not ((_ bit2bool 4) G1))
                          (not (= X2 #b0)))
                      (or ((_ bit2bool 7) A1)
                          ((_ bit2bool 1) D)
                          ((_ bit2bool 3) D)
                          ((_ bit2bool 5) D)
                          (not (= D1 #b0))
                          (= J2 #b0)
                          (not ((_ bit2bool 4) D)))
                      (or (= X2 #b1)
                          ((_ bit2bool 6) A1)
                          ((_ bit2bool 1) V2)
                          ((_ bit2bool 3) V2)
                          ((_ bit2bool 5) V2)
                          (= T2 #b0)
                          (not ((_ bit2bool 4) V2)))
                      (or (= X2 #b1)
                          ((_ bit2bool 5) A1)
                          ((_ bit2bool 1) S)
                          ((_ bit2bool 3) S)
                          ((_ bit2bool 5) S)
                          (= Z1 #b0)
                          (not ((_ bit2bool 4) S)))
                      a!9
                      (or (= X2 #b1)
                          ((_ bit2bool 3) A1)
                          ((_ bit2bool 1) V)
                          ((_ bit2bool 3) V)
                          ((_ bit2bool 5) V)
                          (= X #b0)
                          (not ((_ bit2bool 4) V)))
                      a!10
                      (or (= X2 #b1)
                          (= G #b0)
                          ((_ bit2bool 1) A1)
                          ((_ bit2bool 1) J)
                          ((_ bit2bool 3) J)
                          ((_ bit2bool 5) J)
                          (not ((_ bit2bool 4) J)))
                      (or (= X2 #b1)
                          ((_ bit2bool 0) A1)
                          ((_ bit2bool 1) R1)
                          ((_ bit2bool 3) R1)
                          ((_ bit2bool 5) R1)
                          (not (= A #b1))
                          (not ((_ bit2bool 4) R1)))
                      (or (not (= U1 #b0))
                          ((_ bit2bool 8) A1)
                          ((_ bit2bool 0) G1)
                          ((_ bit2bool 5) G1)
                          (= V1 #b0)
                          (not ((_ bit2bool 4) G1))
                          (not (= X2 #b0)))
                      (or (= X2 #b1)
                          ((_ bit2bool 7) A1)
                          ((_ bit2bool 0) D)
                          ((_ bit2bool 3) D)
                          ((_ bit2bool 5) D)
                          (= J2 #b0)
                          (not ((_ bit2bool 4) D)))
                      a!11
                      (or (= X2 #b1)
                          ((_ bit2bool 6) A1)
                          ((_ bit2bool 3) V2)
                          ((_ bit2bool 5) V2)
                          (= T2 #b0)
                          (not ((_ bit2bool 4) V2))
                          (= ((_ extract 0 0) V2) #b1))
                      (or ((_ bit2bool 5) A1)
                          ((_ bit2bool 0) S)
                          ((_ bit2bool 3) S)
                          ((_ bit2bool 5) S)
                          (not (= D1 #b0))
                          (= Z1 #b0)
                          (not ((_ bit2bool 4) S)))
                      a!12
                      (or (= X2 #b1)
                          ((_ bit2bool 3) A1)
                          ((_ bit2bool 3) V)
                          ((_ bit2bool 5) V)
                          (= X #b0)
                          (not ((_ bit2bool 4) V))
                          (= ((_ extract 0 0) V) #b1))
                      (or (= X2 #b1)
                          ((_ bit2bool 2) A1)
                          ((_ bit2bool 0) T1)
                          ((_ bit2bool 5) T1)
                          (= O #b0)
                          (not ((_ bit2bool 4) T1))
                          (= ((_ extract 3 3) T1) #b1))
                      (or (= X2 #b1)
                          (= G #b0)
                          ((_ bit2bool 1) A1)
                          ((_ bit2bool 0) J)
                          ((_ bit2bool 3) J)
                          ((_ bit2bool 5) J)
                          (not ((_ bit2bool 4) J)))
                      (or (= X2 #b1)
                          (= A #b0)
                          ((_ bit2bool 0) A1)
                          ((_ bit2bool 0) R1)
                          ((_ bit2bool 3) R1)
                          ((_ bit2bool 5) R1)
                          (not ((_ bit2bool 4) R1)))
                      (or ((_ bit2bool 8) A1)
                          ((_ bit2bool 1) G1)
                          ((_ bit2bool 2) G1)
                          ((_ bit2bool 5) G1)
                          (= V1 #b0)
                          (not ((_ bit2bool 4) G1))
                          (not (= X2 #b0)))
                      (or (= X2 #b1)
                          ((_ bit2bool 7) A1)
                          ((_ bit2bool 1) D)
                          ((_ bit2bool 2) D)
                          ((_ bit2bool 5) D)
                          (= J2 #b0)
                          (not ((_ bit2bool 4) D)))
                      (or ((_ bit2bool 6) A1)
                          ((_ bit2bool 1) V2)
                          ((_ bit2bool 2) V2)
                          ((_ bit2bool 5) V2)
                          (not (= D1 #b0))
                          (= T2 #b0)
                          (not ((_ bit2bool 4) V2)))
                      (or ((_ bit2bool 5) A1)
                          ((_ bit2bool 1) S)
                          ((_ bit2bool 2) S)
                          ((_ bit2bool 5) S)
                          (not (= D1 #b0))
                          (= Z1 #b0)
                          (not ((_ bit2bool 4) S)))
                      (or ((_ bit2bool 4) A1)
                          ((_ bit2bool 1) B)
                          ((_ bit2bool 2) B)
                          ((_ bit2bool 5) B)
                          (not (= D1 #b0))
                          (not ((_ bit2bool 4) B))
                          (= C #b0))
                      (or ((_ bit2bool 3) A1)
                          ((_ bit2bool 1) V)
                          ((_ bit2bool 2) V)
                          ((_ bit2bool 5) V)
                          (= X #b0)
                          (not ((_ bit2bool 4) V))
                          (not (= X2 #b0)))
                      (or (= X2 #b1)
                          ((_ bit2bool 2) A1)
                          ((_ bit2bool 1) T1)
                          ((_ bit2bool 2) T1)
                          ((_ bit2bool 5) T1)
                          (= O #b0)
                          (not ((_ bit2bool 4) T1)))
                      (or (= X2 #b1)
                          (= G #b0)
                          ((_ bit2bool 1) A1)
                          ((_ bit2bool 1) J)
                          ((_ bit2bool 2) J)
                          ((_ bit2bool 5) J)
                          (not ((_ bit2bool 4) J)))
                      (or (= X2 #b1)
                          (= A #b0)
                          ((_ bit2bool 0) A1)
                          ((_ bit2bool 1) R1)
                          ((_ bit2bool 2) R1)
                          ((_ bit2bool 5) R1)
                          (not ((_ bit2bool 4) R1)))
                      (or (= X2 #b1)
                          ((_ bit2bool 2) G1)
                          ((_ bit2bool 5) G1)
                          (not (= U1 #b1)))
                      (or (= X2 #b1)
                          ((_ bit2bool 7) A1)
                          ((_ bit2bool 0) D)
                          ((_ bit2bool 2) D)
                          ((_ bit2bool 5) D)
                          (= J2 #b0)
                          (not ((_ bit2bool 4) D)))
                      (or ((_ bit2bool 6) A1)
                          ((_ bit2bool 2) V2)
                          ((_ bit2bool 5) V2)
                          (not (= D1 #b0))
                          (= T2 #b0)
                          (not ((_ bit2bool 4) V2))
                          (= ((_ extract 0 0) V2) #b1))
                      (or ((_ bit2bool 5) A1)
                          ((_ bit2bool 0) S)
                          ((_ bit2bool 2) S)
                          ((_ bit2bool 5) S)
                          (not (= D1 #b0))
                          (= Z1 #b0)
                          (not ((_ bit2bool 4) S)))
                      (or ((_ bit2bool 4) A1)
                          ((_ bit2bool 0) B)
                          ((_ bit2bool 2) B)
                          ((_ bit2bool 5) B)
                          (not (= D1 #b0))
                          (not ((_ bit2bool 4) B))
                          (= C #b0))
                      (or (= X2 #b1)
                          ((_ bit2bool 3) A1)
                          ((_ bit2bool 2) V)
                          ((_ bit2bool 5) V)
                          (= X #b0)
                          (not ((_ bit2bool 4) V))
                          (= ((_ extract 0 0) V) #b1))
                      (or (= X2 #b1)
                          ((_ bit2bool 2) A1)
                          ((_ bit2bool 0) T1)
                          ((_ bit2bool 2) T1)
                          ((_ bit2bool 5) T1)
                          (= O #b0)
                          (not ((_ bit2bool 4) T1)))
                      (or (= X2 #b1)
                          (= G #b0)
                          ((_ bit2bool 1) A1)
                          ((_ bit2bool 0) J)
                          ((_ bit2bool 2) J)
                          ((_ bit2bool 5) J)
                          (not ((_ bit2bool 4) J)))
                      (or (= X2 #b1)
                          (= A #b0)
                          ((_ bit2bool 0) A1)
                          ((_ bit2bool 0) R1)
                          ((_ bit2bool 2) R1)
                          ((_ bit2bool 5) R1)
                          (not ((_ bit2bool 4) R1)))
                      (or (= D2 #b1) (= X2 #b1) (= X1 #x00))
                      (or (= X2 #b1) (= (bvor L1 N2) D2) (= D2 #b1))
                      (or (not ((_ bit2bool 8) A1)) (not (= U1 #b1)) (= X2 #b1))
                      (or (not (= D1 #b0))
                          (not ((_ bit2bool 8) A1))
                          (= ((_ extract 5 3) G1) #b010)
                          (= ((_ extract 5 2) G1) #x6))
                      (or (not (= D1 #b0))
                          (not ((_ bit2bool 7) A1))
                          (= ((_ extract 5 2) D) #x6)
                          (= ((_ extract 5 3) D) #b010))
                      (or (= X2 #b1)
                          (not ((_ bit2bool 6) A1))
                          (= ((_ extract 5 3) V2) #b010)
                          (= ((_ extract 5 2) V2) #x6))
                      (or (not (= D1 #b0))
                          (not ((_ bit2bool 5) A1))
                          (= ((_ extract 5 2) S) #x6)
                          (= ((_ extract 5 3) S) #b010))
                      (or (= X2 #b1)
                          (not ((_ bit2bool 4) A1))
                          (= ((_ extract 5 2) B) #x6)
                          (= ((_ extract 5 3) B) #b010))
                      (or (= X2 #b1)
                          (not ((_ bit2bool 3) A1))
                          (= U1 #b1)
                          (= ((_ extract 5 2) V) #x6)
                          (= ((_ extract 5 3) V) #b010))
                      (or (not (= D1 #b0))
                          (not ((_ bit2bool 2) A1))
                          (= ((_ extract 5 0) D) #b100000)
                          (= ((_ extract 5 2) T1) #x6)
                          (= ((_ extract 5 3) T1) #b010)
                          (= ((_ extract 5 0) D) #b011110)
                          (= ((_ extract 5 0) D) #b011100)
                          (= ((_ extract 5 0) D) #b100010)
                          (= ((_ extract 5 0) D) #b100001)
                          (= ((_ extract 5 0) D) #b011101))
                      (or (= X2 #b1)
                          (not ((_ bit2bool 3) A1))
                          (= ((_ extract 5 2) V) #x6)
                          (= ((_ extract 5 3) V) #b010)
                          (= ((_ extract 5 0) G1) #b011110)
                          (= ((_ extract 5 0) G1) #b011100)
                          (= ((_ extract 5 0) G1) #b100000)
                          (= ((_ extract 5 0) G1) #b100010)
                          (= ((_ extract 5 0) G1) #b011101)
                          (= ((_ extract 5 0) G1) #b100001))
                      (or (not ((_ bit2bool 1) A1))
                          (= ((_ extract 5 3) J) #b010)
                          (= ((_ extract 5 2) J) #x6)
                          (= ((_ extract 5 0) V2) #b100000)
                          (= ((_ extract 5 0) V2) #b011110)
                          (= ((_ extract 5 0) V2) #b011100)
                          (= ((_ extract 5 0) V2) #b100001)
                          (= ((_ extract 5 0) V2) #b011101)
                          (= ((_ extract 5 0) V2) #b100010)
                          (not (= X2 #b0)))
                      (or (= X2 #b1)
                          (= ((_ extract 5 2) R1) #x6)
                          (= ((_ extract 5 3) R1) #b010)
                          (= ((_ extract 5 0) S) #b011100)
                          (= ((_ extract 5 0) S) #b100010)
                          (= ((_ extract 5 0) S) #b100001)
                          (= ((_ extract 5 0) S) #b100000)
                          (= ((_ extract 5 0) S) #b011110)
                          (= ((_ extract 5 0) S) #b011101)
                          (not ((_ bit2bool 0) A1)))
                      (or (= X2 #b1)
                          ((_ bit2bool 0) X)
                          (not ((_ bit2bool 3) A1))
                          (not (= V1 #b0)))
                      (or (= X2 #b1)
                          ((_ bit2bool 0) C)
                          (not ((_ bit2bool 4) A1)))
                      (or (= X2 #b1)
                          ((_ bit2bool 0) O)
                          ((_ bit2bool 0) J2)
                          (not ((_ bit2bool 2) A1)))
                      (or (= X2 #b1)
                          ((_ bit2bool 0) G)
                          ((_ bit2bool 0) T2)
                          (not ((_ bit2bool 1) A1)))
                      (or (= X2 #b1)
                          ((_ bit2bool 0) A)
                          ((_ bit2bool 0) Z1)
                          (not ((_ bit2bool 0) A1)))
                      (or (= X2 #b1)
                          ((_ bit2bool 0) X)
                          (not ((_ bit2bool 3) A1))
                          (= ((_ extract 5 0) G1) #b011110)
                          (= ((_ extract 5 0) G1) #b011100)
                          (= ((_ extract 5 0) G1) #b100000)
                          (= ((_ extract 5 0) G1) #b100010)
                          (= ((_ extract 5 0) G1) #b011101)
                          (= ((_ extract 5 0) G1) #b100001))
                      (or (= X2 #b1)
                          ((_ bit2bool 0) O)
                          (not ((_ bit2bool 2) A1))
                          (= ((_ extract 5 0) D) #b100000)
                          (= ((_ extract 5 0) D) #b011110)
                          (= ((_ extract 5 0) D) #b011100)
                          (= ((_ extract 5 0) D) #b100010)
                          (= ((_ extract 5 0) D) #b100001)
                          (= ((_ extract 5 0) D) #b011101))
                      (or (= X2 #b1)
                          ((_ bit2bool 0) G)
                          (not ((_ bit2bool 1) A1))
                          (= ((_ extract 5 0) V2) #b100000)
                          (= ((_ extract 5 0) V2) #b011110)
                          (= ((_ extract 5 0) V2) #b011100)
                          (= ((_ extract 5 0) V2) #b100001)
                          (= ((_ extract 5 0) V2) #b011101)
                          (= ((_ extract 5 0) V2) #b100010))
                      (or (= X2 #b1)
                          ((_ bit2bool 0) A)
                          (= ((_ extract 5 0) S) #b011100)
                          (= ((_ extract 5 0) S) #b100010)
                          (= ((_ extract 5 0) S) #b100001)
                          (= ((_ extract 5 0) S) #b100000)
                          (= ((_ extract 5 0) S) #b011110)
                          (= ((_ extract 5 0) S) #b011101)
                          (not ((_ bit2bool 0) A1)))
                      (or ((_ bit2bool 0) J2)
                          (not (= D1 #b0))
                          (not ((_ bit2bool 2) A1))
                          (= ((_ extract 5 2) T1) #x6)
                          (= ((_ extract 5 3) T1) #b010))
                      (or (= X2 #b1)
                          ((_ bit2bool 0) T2)
                          (not ((_ bit2bool 1) A1))
                          (= ((_ extract 5 3) J) #b010)
                          (= ((_ extract 5 2) J) #x6))
                      (or (= X2 #b1)
                          (= ((_ extract 5 2) R1) #x6)
                          (= ((_ extract 5 3) R1) #b010)
                          ((_ bit2bool 0) Z1)
                          (not ((_ bit2bool 0) A1)))
                      (or (not (= D1 #b0))
                          (not ((_ bit2bool 8) A1))
                          (not ((_ bit2bool 1) G1))
                          (not ((_ bit2bool 0) G1)))
                      (or (= X2 #b1)
                          (not ((_ bit2bool 6) A1))
                          (not ((_ bit2bool 1) V2))
                          (not ((_ bit2bool 0) V2)))
                      (or (= X2 #b1)
                          (not ((_ bit2bool 7) A1))
                          (not ((_ bit2bool 1) D))
                          (not ((_ bit2bool 0) D)))
                      (or (= X2 #b1)
                          (not ((_ bit2bool 5) A1))
                          (not ((_ bit2bool 0) S))
                          (not ((_ bit2bool 1) S)))
                      (or (= X2 #b1)
                          (not ((_ bit2bool 4) A1))
                          (not ((_ bit2bool 1) B))
                          (not ((_ bit2bool 0) B)))
                      (or (= X2 #b1)
                          (not ((_ bit2bool 3) A1))
                          (not (= V1 #b0))
                          (not ((_ bit2bool 1) V))
                          (not ((_ bit2bool 0) V)))
                      (or (= X2 #b1)
                          ((_ bit2bool 0) J2)
                          (not ((_ bit2bool 2) A1))
                          (not ((_ bit2bool 1) T1))
                          (not ((_ bit2bool 0) T1)))
                      (or (= X2 #b1)
                          ((_ bit2bool 0) T2)
                          (not ((_ bit2bool 1) A1))
                          (not ((_ bit2bool 1) J))
                          (not ((_ bit2bool 0) J)))
                      (or (= X2 #b1)
                          ((_ bit2bool 0) Z1)
                          (not ((_ bit2bool 0) R1))
                          (not ((_ bit2bool 1) R1))
                          (not ((_ bit2bool 0) A1)))
                      (or (= X2 #b1)
                          (not ((_ bit2bool 3) A1))
                          (= ((_ extract 5 0) G1) #b011110)
                          (= ((_ extract 5 0) G1) #b011100)
                          (not ((_ bit2bool 1) V))
                          (not ((_ bit2bool 0) V))
                          (= ((_ extract 5 0) G1) #b100000)
                          (= ((_ extract 5 0) G1) #b100010)
                          (= ((_ extract 5 0) G1) #b011101)
                          (= ((_ extract 5 0) G1) #b100001))
                      (or (= X2 #b1)
                          (not ((_ bit2bool 2) A1))
                          (= ((_ extract 5 0) D) #b100000)
                          (= ((_ extract 5 0) D) #b011110)
                          (= ((_ extract 5 0) D) #b011100)
                          (not ((_ bit2bool 1) T1))
                          (not ((_ bit2bool 0) T1))
                          (= ((_ extract 5 0) D) #b100010)
                          (= ((_ extract 5 0) D) #b100001)
                          (= ((_ extract 5 0) D) #b011101))
                      (or (= X2 #b1)
                          (not ((_ bit2bool 1) A1))
                          (not ((_ bit2bool 1) J))
                          (not ((_ bit2bool 0) J))
                          (= ((_ extract 5 0) V2) #b100000)
                          (= ((_ extract 5 0) V2) #b011110)
                          (= ((_ extract 5 0) V2) #b011100)
                          (= ((_ extract 5 0) V2) #b100001)
                          (= ((_ extract 5 0) V2) #b011101)
                          (= ((_ extract 5 0) V2) #b100010))
                      (or (not (= D1 #b0))
                          (not ((_ bit2bool 0) R1))
                          (= ((_ extract 5 0) S) #b011100)
                          (not ((_ bit2bool 1) R1))
                          (= ((_ extract 5 0) S) #b100010)
                          (= ((_ extract 5 0) S) #b100001)
                          (= ((_ extract 5 0) S) #b100000)
                          (= ((_ extract 5 0) S) #b011110)
                          (= ((_ extract 5 0) S) #b011101)
                          (not ((_ bit2bool 0) A1))))))
       (= (INV!slice!1 A
                       B
                       C
                       D
                       E
                       F
                       G
                       H
                       I
                       J
                       K
                       L
                       M
                       N
                       O
                       P
                       Q
                       R
                       S
                       T
                       U
                       V
                       W
                       X
                       Y
                       Z
                       A1
                       B1
                       C1
                       D1
                       E1
                       F1
                       G1
                       H1
                       I1
                       J1
                       K1
                       L1
                       M1
                       N1
                       O1
                       P1
                       Q1
                       R1
                       S1
                       T1
                       U1
                       V1
                       W1
                       X1
                       Y1
                       Z1
                       A2
                       B2
                       C2
                       D2
                       E2
                       F2
                       G2
                       H2
                       I2
                       J2
                       K2
                       L2
                       M2
                       N2
                       O2
                       P2
                       Q2
                       R2
                       S2
                       T2
                       U2
                       V2
                       W2
                       X2
                       Y2
                       Z2
                       A3)
          a!13)))
     :weight 0))
